<?xml version="1.0" encoding="UTF-8"?><osil xmlns="os.optimizationservices.org" xmlns:xsi="http://www.w3.org/2001/XMLSchema-instance" xsi:schemaLocation="os.optimizationservices.org http://www.optimizationservices.org/schemas/2.0/OSiL.xsd"><instanceHeader><name>nvs12</name></instanceHeader><instanceData><variables numberOfVariables="4"><var name="i1" type="I" ub="200"/><var name="i2" type="I" ub="200"/><var name="i3" type="I" ub="200"/><var name="i4" type="I" ub="200"/></variables><objectives><obj maxOrMin="min" name="defObj_objvar" numberOfObjCoef="4"><coef idx="0">-20</coef><coef idx="1">-93.2</coef><coef idx="2">-67.2</coef><coef idx="3">-36.6</coef></obj></objectives><constraints numberOfConstraints="4"><con name="e1" lb="-1.1e3"/><con name="e2" lb="-4.4e2"/><con name="e3" lb="-3.1e2"/><con name="e4" lb="-4.6e2"/></constraints><quadraticCoefficients numberOfQuadraticTerms="46"><qTerm idx="-1" idxOne="0" idxTwo="0" coef="7"/><qTerm idx="-1" idxOne="0" idxTwo="2" coef="-6"/><qTerm idx="-1" idxOne="0" idxTwo="3" coef="2"/><qTerm idx="-1" idxOne="1" idxTwo="1" coef="6"/><qTerm idx="-1" idxOne="1" idxTwo="2" coef="4"/><qTerm idx="-1" idxOne="2" idxTwo="2" coef="8"/><qTerm idx="-1" idxOne="2" idxTwo="3" coef="2"/><qTerm idx="-1" idxOne="3" idxTwo="3" coef="6"/><qTerm idx="0" idxOne="0" idxTwo="0" coef="-9"/><qTerm idx="0" idxOne="0" idxTwo="1" coef="-10"/><qTerm idx="0" idxOne="0" idxTwo="2" coef="-6"/><qTerm idx="0" idxOne="0" idxTwo="3" coef="-10"/><qTerm idx="0" idxOne="1" idxTwo="1" coef="-8"/><qTerm idx="0" idxOne="1" idxTwo="2" coef="-10"/><qTerm idx="0" idxOne="1" idxTwo="3" coef="-6"/><qTerm idx="0" idxOne="2" idxTwo="2" coef="-5"/><qTerm idx="0" idxOne="2" idxTwo="3" coef="-2"/><qTerm idx="0" idxOne="3" idxTwo="3" coef="-7"/><qTerm idx="1" idxOne="0" idxTwo="0" coef="-6"/><qTerm idx="1" idxOne="0" idxTwo="1" coef="-8"/><qTerm idx="1" idxOne="0" idxTwo="2" coef="-2"/><qTerm idx="1" idxOne="0" idxTwo="3" coef="2"/><qTerm idx="1" idxOne="1" idxTwo="1" coef="-6"/><qTerm idx="1" idxOne="1" idxTwo="2" coef="-2"/><qTerm idx="1" idxOne="1" idxTwo="3" coef="10"/><qTerm idx="1" idxOne="2" idxTwo="2" coef="-4"/><qTerm idx="1" idxOne="3" idxTwo="3" coef="-8"/><qTerm idx="2" idxOne="0" idxTwo="0" coef="-9"/><qTerm idx="2" idxOne="0" idxTwo="1" coef="2"/><qTerm idx="2" idxOne="0" idxTwo="3" coef="4"/><qTerm idx="2" idxOne="1" idxTwo="1" coef="-6"/><qTerm idx="2" idxOne="1" idxTwo="2" coef="2"/><qTerm idx="2" idxOne="1" idxTwo="3" coef="4"/><qTerm idx="2" idxOne="2" idxTwo="2" coef="-8"/><qTerm idx="2" idxOne="2" idxTwo="3" coef="-2"/><qTerm idx="2" idxOne="3" idxTwo="3" coef="-6"/><qTerm idx="3" idxOne="0" idxTwo="0" coef="-8"/><qTerm idx="3" idxOne="0" idxTwo="1" coef="-2"/><qTerm idx="3" idxOne="0" idxTwo="2" coef="-2"/><qTerm idx="3" idxOne="0" idxTwo="3" coef="6"/><qTerm idx="3" idxOne="1" idxTwo="1" coef="-4"/><qTerm idx="3" idxOne="1" idxTwo="2" coef="-4"/><qTerm idx="3" idxOne="1" idxTwo="3" coef="2"/><qTerm idx="3" idxOne="2" idxTwo="2" coef="-9"/><qTerm idx="3" idxOne="2" idxTwo="3" coef="-2"/><qTerm idx="3" idxOne="3" idxTwo="3" coef="-7"/></quadraticCoefficients></instanceData></osil>